
******************************************************************************
This program contains Ipopt, a library for large-scale nonlinear optimization.
 Ipopt is released as open source code under the Eclipse Public License (EPL).
         For more information visit http://projects.coin-or.org/Ipopt
******************************************************************************

This is Ipopt version 3.12.6, running with linear solver ma57.

Number of nonzeros in equality constraint Jacobian...:        0
Number of nonzeros in inequality constraint Jacobian.:        0
Number of nonzeros in Lagrangian Hessian.............:     9999

Total number of variables............................:     5000
                     variables with only lower bounds:        0
                variables with lower and upper bounds:        0
                     variables with only upper bounds:        0
Total number of equality constraints.................:        0
Total number of inequality constraints...............:        0
        inequality constraints with only lower bounds:        0
   inequality constraints with lower and upper bounds:        0
        inequality constraints with only upper bounds:        0

iter    objective    inf_pr   inf_du lg(mu)  ||d||  lg(rg) alpha_du alpha_pr  ls
   0  1.4997000e+04 0.00e+00 1.00e+02  -1.0 0.00e+00    -  0.00e+00 0.00e+00   0
   1  2.8119375e+03 0.00e+00 3.12e+01  -1.0 5.00e-01    -  1.00e+00 1.00e+00f  1
   2  2.0603878e+02 0.00e+00 6.58e+00  -1.0 3.80e-01    -  1.00e+00 1.00e+00f  1
   3  2.0631784e+00 0.00e+00 5.43e-01  -1.0 1.09e-01    -  1.00e+00 1.00e+00f  1
   4  2.7376827e-04 0.00e+00 5.88e-03  -1.7 1.06e-02    -  1.00e+00 1.00e+00f  1
   5  3.3300029e-12 0.00e+00 7.90e-07  -3.8 1.18e-04    -  1.00e+00 1.00e+00f  1
   6  0.0000000e+00 0.00e+00 1.44e-14  -8.6 1.58e-08    -  1.00e+00 1.00e+00f  1

Number of Iterations....: 6

                                   (scaled)                 (unscaled)
Objective...............:   0.0000000000000000e+00    0.0000000000000000e+00
Dual infeasibility......:   1.4423786403667439e-14    5.7683606585546819e-12
Constraint violation....:   0.0000000000000000e+00    0.0000000000000000e+00
Complementarity.........:   0.0000000000000000e+00    0.0000000000000000e+00
Overall NLP error.......:   1.4423786403667439e-14    5.7683606585546819e-12


Number of objective function evaluations             = 7
Number of objective gradient evaluations             = 7
Number of equality constraint evaluations            = 0
Number of inequality constraint evaluations          = 0
Number of equality constraint Jacobian evaluations   = 0
Number of inequality constraint Jacobian evaluations = 0
Number of Lagrangian Hessian evaluations             = 6
Total CPU secs in IPOPT (w/o function evaluations)   =      0.017
Total CPU secs in NLP function evaluations           =      0.023

EXIT: Optimal Solution Found.

 ** SUBROUTINE CUTEST_csetup: Warning. The problem has no general constraints. 
 ** Other tools may be preferable ** 

************************ CUTEst statistics ************************


 Package used            :  IPOPT
 Problem                 :  ARWHEAD   
 # variables             =            5000
 # constraints           =               0
 # objective functions   =        0.1500000E+02
 # objective gradients   =        0.8000000E+01
 # objective Hessians    =        0.7000000E+01
 # Hessian-vector prdct  =        0.0000000E+00
 # constraints functions =        0.0000000E+00
 # constraints gradients =        0.0000000E+00
 # constraints Hessians  =        0.0000000E+00
 Exit code               =               0
 Final f                 =   0.0000000E+00
 Set up time             =            0.33 seconds
 Solve time              =            0.04 seconds


******************************************************************

System Time =       0.0390000008 s.
